
Gurobi 8.0.0 (win64, Python) logging started 04/27/18 19:55:20


Gurobi 8.0.0 (win64, Python) logging started 04/27/18 19:55:28


Gurobi 8.0.0 (win64, Python) logging started 04/27/18 19:55:33


Gurobi 8.0.0 (win64, Python) logging started 04/27/18 19:55:41


Gurobi 8.0.0 (win64, Python) logging started 04/27/18 19:56:39


Gurobi 8.0.0 (win64, Python) logging started 04/27/18 20:02:17

Academic license - for non-commercial use only
Freed default Gurobi environment

Gurobi 8.0.0 (win64, Python) logging started 04/27/18 20:19:30

Academic license - for non-commercial use only
